number_of_cranes = 3;
number_of_stow_factors = 3; 
total_time_slots = 20;

inventory = 
[| 2,2,3
| 2,2,3
| 1,2,3
|];

crane_stow_list =
[| 1,1,0,0,0,0,0,0,0,1,1,0,0,0,1,1,0,0,0,1
| 0,0,1,0,1,0,1,0,0,0,0,1,1,1,0,0,0,1,0,0
| 0,0,0,1,0,1,0,1,1,0,0,0,0,0,0,0,1,0,1,0
|];

dependencies =
[| 1,0,0 | 0,0,0 | 0,0,0 | 1,0,0 | 0,0,0 | 0,0,0 | 1,0,0 | 0,0,0 | 0,0,0 |];

